&control
    calculation = 'scf'
    title = 'TDDFT Example SiH4 (US PPS)'
    restart_mode='from_scratch',
    pseudo_dir = '../../../../pseudo',
    outdir='./out',
    prefix='sih4'
 /
 &system
    ibrav = 1,
    celldm(1) = 18,
    nat = 5,
    ntyp = 2,
    ecutwfc = 25,
    nosym=.true,
/
 &electrons
    diagonalization = 'david',
    conv_thr = 1.0d-10,
 /
&ions
/

ATOMIC_SPECIES
Si   28.08550  Si.pbe-mt_gipaw.UPF
H    1.00000  H.pbe-vbc.UPF

ATOMIC_POSITIONS {Angstrom}
Si       0.000000000   0.000000000   0.000000000
H        0.861984020   0.861984020   0.861984020
H       -0.861984020  -0.861984020   0.861984020
H        0.861984020  -0.861984020  -0.861984020
H       -0.861984020   0.861984020  -0.861984020
K_POINTS {automatic}
2 1 1 0 0 0
