&control
	calculation = 'scf'
	restart_mode='from_scratch'
	prefix='graphene'
	pseudo_dir = '../../../espresso/pseudo/',
	outdir = './out'
	tefield = .true.
/
&system
	ibrav=4
	celldm(1)=4.648728119
	celldm(3)=4.06504065
	nat=4
	ntyp=1
	ecutwfc=25.0
	ecutrho=350.0
	!occupations = 'smearing'
	!smearing = 'fermi-dirac'
	!degauss = 0.0019
	edir = 3
	emirror = .true.
	epstart = 0.005d0
	epend = 0.245d0
	enstart = 0.255d0
	enend = 0.495d0
	evolt = 0.0735d0
/
&electrons
	diagonalization='david'
	electron_maxstep = 100
	mixing_mode='plain'
	mixing_beta=0.1
	conv_thr = 1.0e-14

/
ATOMIC_SPECIES
C 12.011 C.pbe-mt_gipaw.UPF

ATOMIC_POSITIONS (angstrom)
C 0.000000000 0.000000000 3.450000000
C 1.230000000 0.710140830 3.450000000
C 0.000000000 0.000000000 6.550000000
C 0.000000000 1.420281660 6.550000000

K_POINTS {gamma}
